c nIsolatedPIs 0
c maxPI 32
p cnf 320 865
c gate 33 5 21 0
5 -33 0
21 -33 0
-5 -21 33 0
c gate 34 -5 21 0
-5 -34 0
21 -34 0
5 -21 34 0
c gate 35 5 -21 0
5 -35 0
-21 -35 0
-5 21 35 0
c gate 36 -34 -35 0
-34 -36 0
-35 -36 0
34 35 36 0
c gate 37 -4 -20 0
-4 -37 0
-20 -37 0
4 20 37 0
c gate 38 4 20 0
4 -38 0
20 -38 0
-4 -20 38 0
c gate 39 -37 -38 0
-37 -39 0
-38 -39 0
37 38 39 0
c gate 40 3 19 0
3 -40 0
19 -40 0
-3 -19 40 0
c gate 41 -3 19 0
-3 -41 0
19 -41 0
3 -19 41 0
c gate 42 3 -19 0
3 -42 0
-19 -42 0
-3 19 42 0
c gate 43 -41 -42 0
-41 -43 0
-42 -43 0
41 42 43 0
c gate 44 -2 18 0
-2 -44 0
18 -44 0
2 -18 44 0
c gate 45 2 -18 0
2 -45 0
-18 -45 0
-2 18 45 0
c gate 46 -44 -45 0
-44 -46 0
-45 -46 0
44 45 46 0
c gate 47 1 17 0
1 -47 0
17 -47 0
-1 -17 47 0
c gate 48 -46 47 0
-46 -48 0
47 -48 0
46 -47 48 0
c gate 49 2 18 0
2 -49 0
18 -49 0
-2 -18 49 0
c gate 50 -48 -49 0
-48 -50 0
-49 -50 0
48 49 50 0
c gate 51 -43 -50 0
-43 -51 0
-50 -51 0
43 50 51 0
c gate 52 -40 -51 0
-40 -52 0
-51 -52 0
40 51 52 0
c gate 53 39 52 0
39 -53 0
52 -53 0
-39 -52 53 0
c gate 54 -37 -53 0
-37 -54 0
-53 -54 0
37 53 54 0
c gate 55 -36 54 0
-36 -55 0
54 -55 0
36 -54 55 0
c gate 56 -33 -55 0
-33 -56 0
-55 -56 0
33 55 56 0
c gate 57 6 -22 0
6 -57 0
-22 -57 0
-6 22 57 0
c gate 58 -6 22 0
-6 -58 0
22 -58 0
6 -22 58 0
c gate 59 -57 -58 0
-57 -59 0
-58 -59 0
57 58 59 0
c gate 60 -56 -59 0
-56 -60 0
-59 -60 0
56 59 60 0
c gate 61 56 59 0
56 -61 0
59 -61 0
-56 -59 61 0
c gate 62 -60 -61 0
-60 -62 0
-61 -62 0
60 61 62 0
c gate 63 18 -50 0
18 -63 0
-50 -63 0
-18 50 63 0
c gate 64 -40 -63 0
-40 -64 0
-63 -64 0
40 63 64 0
c gate 65 39 -64 0
39 -65 0
-64 -65 0
-39 64 65 0
c gate 66 -38 -65 0
-38 -66 0
-65 -66 0
38 65 66 0
c gate 67 -33 66 0
-33 -67 0
66 -67 0
33 -66 67 0
c gate 68 59 67 0
59 -68 0
67 -68 0
-59 -67 68 0
c gate 69 -59 -67 0
-59 -69 0
-67 -69 0
59 67 69 0
c gate 70 -68 -69 0
-68 -70 0
-69 -70 0
68 69 70 0
c gate 71 -62 70 0
-62 -71 0
70 -71 0
62 -70 71 0
c gate 72 62 -70 0
62 -72 0
-70 -72 0
-62 70 72 0
c gate 73 -71 -72 0
-71 -73 0
-72 -73 0
71 72 73 0
c gate 74 12 28 0
12 -74 0
28 -74 0
-12 -28 74 0
c gate 75 -12 28 0
-12 -75 0
28 -75 0
12 -28 75 0
c gate 76 12 -28 0
12 -76 0
-28 -76 0
-12 28 76 0
c gate 77 -75 -76 0
-75 -77 0
-76 -77 0
75 76 77 0
c gate 78 11 27 0
11 -78 0
27 -78 0
-11 -27 78 0
c gate 79 10 26 0
10 -79 0
26 -79 0
-10 -26 79 0
c gate 80 -9 -25 0
-9 -80 0
-25 -80 0
9 25 80 0
c gate 81 -10 -26 0
-10 -81 0
-26 -81 0
10 26 81 0
c gate 82 -80 -81 0
-80 -82 0
-81 -82 0
80 81 82 0
c gate 83 9 25 0
9 -83 0
25 -83 0
-9 -25 83 0
c gate 84 -7 -23 0
-7 -84 0
-23 -84 0
7 23 84 0
c gate 85 -6 -22 0
-6 -85 0
-22 -85 0
6 22 85 0
c gate 86 -67 -85 0
-67 -86 0
-85 -86 0
67 85 86 0
c gate 87 -84 86 0
-84 -87 0
86 -87 0
84 -86 87 0
c gate 88 8 24 0
8 -88 0
24 -88 0
-8 -24 88 0
c gate 89 -87 -88 0
-87 -89 0
-88 -89 0
87 88 89 0
c gate 90 -83 89 0
-83 -90 0
89 -90 0
83 -89 90 0
c gate 91 82 -90 0
82 -91 0
-90 -91 0
-82 90 91 0
c gate 92 -79 -91 0
-79 -92 0
-91 -92 0
79 91 92 0
c gate 93 -11 -27 0
-11 -93 0
-27 -93 0
11 27 93 0
c gate 94 -78 -93 0
-78 -94 0
-93 -94 0
78 93 94 0
c gate 95 -92 94 0
-92 -95 0
94 -95 0
92 -94 95 0
c gate 96 -78 -95 0
-78 -96 0
-95 -96 0
78 95 96 0
c gate 97 -77 -96 0
-77 -97 0
-96 -97 0
77 96 97 0
c gate 98 -74 -97 0
-74 -98 0
-97 -98 0
74 97 98 0
c gate 99 15 31 0
15 -99 0
31 -99 0
-15 -31 99 0
c gate 100 -15 -31 0
-15 -100 0
-31 -100 0
15 31 100 0
c gate 101 14 30 0
14 -101 0
30 -101 0
-14 -30 101 0
c gate 102 -13 -29 0
-13 -102 0
-29 -102 0
13 29 102 0
c gate 103 -14 -30 0
-14 -103 0
-30 -103 0
14 30 103 0
c gate 104 -102 -103 0
-102 -104 0
-103 -104 0
102 103 104 0
c gate 105 -12 -28 0
-12 -105 0
-28 -105 0
12 28 105 0
c gate 106 -8 -24 0
-8 -106 0
-24 -106 0
8 24 106 0
c gate 107 7 23 0
7 -107 0
23 -107 0
-7 -23 107 0
c gate 108 6 22 0
6 -108 0
22 -108 0
-6 -22 108 0
c gate 109 -60 -108 0
-60 -109 0
-108 -109 0
60 108 109 0
c gate 110 7 -23 0
7 -110 0
-23 -110 0
-7 23 110 0
c gate 111 -7 23 0
-7 -111 0
23 -111 0
7 -23 111 0
c gate 112 -110 -111 0
-110 -112 0
-111 -112 0
110 111 112 0
c gate 113 -109 -112 0
-109 -113 0
-112 -113 0
109 112 113 0
c gate 114 -107 -113 0
-107 -114 0
-113 -114 0
107 113 114 0
c gate 115 -106 -114 0
-106 -115 0
-114 -115 0
106 114 115 0
c gate 116 -88 -115 0
-88 -116 0
-115 -116 0
88 115 116 0
c gate 117 -83 116 0
-83 -117 0
116 -117 0
83 -116 117 0
c gate 118 82 -117 0
82 -118 0
-117 -118 0
-82 117 118 0
c gate 119 -79 -118 0
-79 -119 0
-118 -119 0
79 118 119 0
c gate 120 -93 -119 0
-93 -120 0
-119 -120 0
93 119 120 0
c gate 121 -78 -120 0
-78 -121 0
-120 -121 0
78 120 121 0
c gate 122 -105 -121 0
-105 -122 0
-121 -122 0
105 121 122 0
c gate 123 13 29 0
13 -123 0
29 -123 0
-13 -29 123 0
c gate 124 -74 -123 0
-74 -124 0
-123 -124 0
74 123 124 0
c gate 125 -122 124 0
-122 -125 0
124 -125 0
122 -124 125 0
c gate 126 104 -125 0
104 -126 0
-125 -126 0
-104 125 126 0
c gate 127 -101 -126 0
-101 -127 0
-126 -127 0
101 126 127 0
c gate 128 -100 -127 0
-100 -128 0
-127 -128 0
100 127 128 0
c gate 129 -99 -128 0
-99 -129 0
-128 -129 0
99 128 129 0
c gate 130 16 -32 0
16 -130 0
-32 -130 0
-16 32 130 0
c gate 131 -16 32 0
-16 -131 0
32 -131 0
16 -32 131 0
c gate 132 -130 -131 0
-130 -132 0
-131 -132 0
130 131 132 0
c gate 133 129 -132 0
129 -133 0
-132 -133 0
-129 132 133 0
c gate 134 -129 132 0
-129 -134 0
132 -134 0
129 -132 134 0
c gate 135 -133 -134 0
-133 -135 0
-134 -135 0
133 134 135 0
c gate 136 98 -123 0
98 -136 0
-123 -136 0
-98 123 136 0
c gate 137 104 -136 0
104 -137 0
-136 -137 0
-104 136 137 0
c gate 138 -101 -137 0
-101 -138 0
-137 -138 0
101 137 138 0
c gate 139 -100 -138 0
-100 -139 0
-138 -139 0
100 138 139 0
c gate 140 -99 -139 0
-99 -140 0
-139 -140 0
99 139 140 0
c gate 141 132 -140 0
132 -141 0
-140 -141 0
-132 140 141 0
c gate 142 -132 140 0
-132 -142 0
140 -142 0
132 -140 142 0
c gate 143 -141 -142 0
-141 -143 0
-142 -143 0
141 142 143 0
c gate 144 135 -143 0
135 -144 0
-143 -144 0
-135 143 144 0
c gate 145 98 144 0
98 -145 0
144 -145 0
-98 -144 145 0
c gate 146 87 116 0
87 -146 0
116 -146 0
-87 -116 146 0
c gate 147 89 115 0
89 -147 0
115 -147 0
-89 -115 147 0
c gate 148 -146 -147 0
-146 -148 0
-147 -148 0
146 147 148 0
c gate 149 -96 -121 0
-96 -149 0
-121 -149 0
96 121 149 0
c gate 150 96 -120 0
96 -150 0
-120 -150 0
-96 120 150 0
c gate 151 -149 -150 0
-149 -151 0
-150 -151 0
149 150 151 0
c gate 152 -79 -81 0
-79 -152 0
-81 -152 0
79 81 152 0
c gate 153 -80 -83 0
-80 -153 0
-83 -153 0
80 83 153 0
c gate 154 94 153 0
94 -154 0
153 -154 0
-94 -153 154 0
c gate 155 152 154 0
152 -155 0
154 -155 0
-152 -154 155 0
c gate 156 147 -155 0
147 -156 0
-155 -156 0
-147 155 156 0
c gate 157 146 155 0
146 -157 0
155 -157 0
-146 -155 157 0
c gate 158 -156 -157 0
-156 -158 0
-157 -158 0
156 157 158 0
c gate 159 -151 158 0
-151 -159 0
158 -159 0
151 -158 159 0
c gate 160 77 -121 0
77 -160 0
-121 -160 0
-77 121 160 0
c gate 161 -97 -150 0
-97 -161 0
-150 -161 0
97 150 161 0
c gate 162 -160 161 0
-160 -162 0
161 -162 0
160 -161 162 0
c gate 163 -159 -162 0
-159 -163 0
-162 -163 0
159 162 163 0
c gate 164 -148 -163 0
-148 -164 0
-163 -164 0
148 163 164 0
c gate 165 -77 151 0
-77 -165 0
151 -165 0
77 -151 165 0
c gate 166 -164 -165 0
-164 -166 0
-165 -166 0
164 165 166 0
c gate 167 -135 143 0
-135 -167 0
143 -167 0
135 -143 167 0
c gate 168 -95 -120 0
-95 -168 0
-120 -168 0
95 120 168 0
c gate 169 -14 30 0
-14 -169 0
30 -169 0
14 -30 169 0
c gate 170 14 -30 0
14 -170 0
-30 -170 0
-14 30 170 0
c gate 171 -169 -170 0
-169 -171 0
-170 -171 0
169 170 171 0
c gate 172 -99 -100 0
-99 -172 0
-100 -172 0
99 100 172 0
c gate 173 -13 29 0
-13 -173 0
29 -173 0
13 -29 173 0
c gate 174 13 -29 0
13 -174 0
-29 -174 0
-13 29 174 0
c gate 175 -173 -174 0
-173 -175 0
-174 -175 0
173 174 175 0
c gate 176 172 -175 0
172 -176 0
-175 -176 0
-172 175 176 0
c gate 177 -171 176 0
-171 -177 0
176 -177 0
171 -176 177 0
c gate 178 120 177 0
120 -178 0
177 -178 0
-120 -177 178 0
c gate 179 95 -177 0
95 -179 0
-177 -179 0
-95 177 179 0
c gate 180 -77 -78 0
-77 -180 0
-78 -180 0
77 78 180 0
c gate 181 -179 180 0
-179 -181 0
180 -181 0
179 -180 181 0
c gate 182 -178 181 0
-178 -182 0
181 -182 0
178 -181 182 0
c gate 183 -168 182 0
-168 -183 0
182 -183 0
168 -182 183 0
c gate 184 -144 183 0
-144 -184 0
183 -184 0
144 -183 184 0
c gate 185 -167 -184 0
-167 -185 0
-184 -185 0
167 184 185 0
c gate 186 -166 185 0
-166 -186 0
185 -186 0
166 -185 186 0
c gate 187 -88 -106 0
-88 -187 0
-106 -187 0
88 106 187 0
c gate 188 87 187 0
87 -188 0
187 -188 0
-87 -187 188 0
c gate 189 114 -188 0
114 -189 0
-188 -189 0
-114 188 189 0
c gate 190 -114 187 0
-114 -190 0
187 -190 0
114 -187 190 0
c gate 191 -189 -190 0
-189 -191 0
-190 -191 0
189 190 191 0
c gate 192 109 112 0
109 -192 0
112 -192 0
-109 -112 192 0
c gate 193 -113 -192 0
-113 -193 0
-192 -193 0
113 192 193 0
c gate 194 86 112 0
86 -194 0
112 -194 0
-86 -112 194 0
c gate 195 -86 -112 0
-86 -195 0
-112 -195 0
86 112 195 0
c gate 196 -194 -195 0
-194 -196 0
-195 -196 0
194 195 196 0
c gate 197 -193 -196 0
-193 -197 0
-196 -197 0
193 196 197 0
c gate 198 193 196 0
193 -198 0
196 -198 0
-193 -196 198 0
c gate 199 36 -54 0
36 -199 0
-54 -199 0
-36 54 199 0
c gate 200 -55 -199 0
-55 -200 0
-199 -200 0
55 199 200 0
c gate 201 -36 66 0
-36 -201 0
66 -201 0
36 -66 201 0
c gate 202 36 -66 0
36 -202 0
-66 -202 0
-36 66 202 0
c gate 203 -201 -202 0
-201 -203 0
-202 -203 0
201 202 203 0
c gate 204 200 203 0
200 -204 0
203 -204 0
-200 -203 204 0
c gate 205 73 -204 0
73 -205 0
-204 -205 0
-73 204 205 0
c gate 206 -71 -205 0
-71 -206 0
-205 -206 0
71 205 206 0
c gate 207 -198 -206 0
-198 -207 0
-206 -207 0
198 206 207 0
c gate 208 18 -43 0
18 -208 0
-43 -208 0
-18 43 208 0
c gate 209 -50 -208 0
-50 -209 0
-208 -209 0
50 208 209 0
c gate 210 -200 -203 0
-200 -210 0
-203 -210 0
200 203 210 0
c gate 211 -2 51 0
-2 -211 0
51 -211 0
2 -51 211 0
c gate 212 -39 -52 0
-39 -212 0
-52 -212 0
39 52 212 0
c gate 213 -53 -212 0
-53 -213 0
-212 -213 0
53 212 213 0
c gate 214 -39 64 0
-39 -214 0
64 -214 0
39 -64 214 0
c gate 215 -65 -214 0
-65 -215 0
-214 -215 0
65 214 215 0
c gate 216 213 215 0
213 -216 0
215 -216 0
-213 -215 216 0
c gate 217 -211 -216 0
-211 -217 0
-216 -217 0
211 216 217 0
c gate 218 -210 217 0
-210 -218 0
217 -218 0
210 -217 218 0
c gate 219 205 218 0
205 -219 0
218 -219 0
-205 -218 219 0
c gate 220 209 219 0
209 -220 0
219 -220 0
-209 -219 220 0
c gate 221 207 -220 0
207 -221 0
-220 -221 0
-207 220 221 0
c gate 222 -197 -221 0
-197 -222 0
-221 -222 0
197 221 222 0
c gate 223 -191 -222 0
-191 -223 0
-222 -223 0
191 222 223 0
c gate 224 148 223 0
148 -224 0
223 -224 0
-148 -223 224 0
c gate 225 -186 -224 0
-186 -225 0
-224 -225 0
186 224 225 0
c gate 226 133 139 0
133 -226 0
139 -226 0
-133 -139 226 0
c gate 227 -225 -226 0
-225 -227 0
-226 -227 0
225 226 227 0
c gate 228 -145 -227 0
-145 -228 0
-227 -228 0
145 227 228 0
c gate 229 4 -20 0
4 -229 0
-20 -229 0
-4 20 229 0
c gate 230 -1 17 0
-1 -230 0
17 -230 0
1 -17 230 0
c gate 231 -44 -230 0
-44 -231 0
-230 -231 0
44 230 231 0
c gate 232 -42 -45 0
-42 -232 0
-45 -232 0
42 45 232 0
c gate 233 -231 232 0
-231 -233 0
232 -233 0
231 -232 233 0
c gate 234 -41 -233 0
-41 -234 0
-233 -234 0
41 233 234 0
c gate 235 229 -234 0
229 -235 0
-234 -235 0
-229 234 235 0
c gate 236 -228 -235 0
-228 -236 0
-235 -236 0
228 235 236 0
c gate 237 36 59 0
36 -237 0
59 -237 0
-36 -59 237 0
c gate 238 112 237 0
112 -238 0
237 -238 0
-112 -237 238 0
c gate 239 235 238 0
235 -239 0
238 -239 0
-235 -238 239 0
c gate 240 -236 -239 0
-236 -240 0
-239 -240 0
236 239 240 0
c gate 241 -15 31 0
-15 -241 0
31 -241 0
15 -31 241 0
c gate 242 -11 27 0
-11 -242 0
27 -242 0
11 -27 242 0
c gate 243 11 -27 0
11 -243 0
-27 -243 0
-11 27 243 0
c gate 244 -10 26 0
-10 -244 0
26 -244 0
10 -26 244 0
c gate 245 10 -26 0
10 -245 0
-26 -245 0
-10 26 245 0
c gate 246 9 -25 0
9 -246 0
-25 -246 0
-9 25 246 0
c gate 247 -245 -246 0
-245 -247 0
-246 -247 0
245 246 247 0
c gate 248 8 -24 0
8 -248 0
-24 -248 0
-8 24 248 0
c gate 249 -39 234 0
-39 -249 0
234 -249 0
39 -234 249 0
c gate 250 -35 -229 0
-35 -250 0
-229 -250 0
35 229 250 0
c gate 251 -249 250 0
-249 -251 0
250 -251 0
249 -250 251 0
c gate 252 -34 -251 0
-34 -252 0
-251 -252 0
34 251 252 0
c gate 253 -57 -252 0
-57 -253 0
-252 -253 0
57 252 253 0
c gate 254 -58 -111 0
-58 -254 0
-111 -254 0
58 111 254 0
c gate 255 -253 254 0
-253 -255 0
254 -255 0
253 -254 255 0
c gate 256 -110 -255 0
-110 -256 0
-255 -256 0
110 255 256 0
c gate 257 -248 256 0
-248 -257 0
256 -257 0
248 -256 257 0
c gate 258 -9 25 0
-9 -258 0
25 -258 0
9 -25 258 0
c gate 259 -8 24 0
-8 -259 0
24 -259 0
8 -24 259 0
c gate 260 -258 -259 0
-258 -260 0
-259 -260 0
258 259 260 0
c gate 261 -257 260 0
-257 -261 0
260 -261 0
257 -260 261 0
c gate 262 247 -261 0
247 -262 0
-261 -262 0
-247 261 262 0
c gate 263 -244 -262 0
-244 -263 0
-262 -263 0
244 262 263 0
c gate 264 -243 -263 0
-243 -264 0
-263 -264 0
243 263 264 0
c gate 265 -242 -264 0
-242 -265 0
-264 -265 0
242 264 265 0
c gate 266 -243 -248 0
-243 -266 0
-248 -266 0
243 248 266 0
c gate 267 247 266 0
247 -267 0
266 -267 0
-247 -266 267 0
c gate 268 239 267 0
239 -268 0
267 -268 0
-239 -267 268 0
c gate 269 -75 -268 0
-75 -269 0
-268 -269 0
75 268 269 0
c gate 270 265 269 0
265 -270 0
269 -270 0
-265 -269 270 0
c gate 271 -76 -174 0
-76 -271 0
-174 -271 0
76 174 271 0
c gate 272 -270 271 0
-270 -272 0
271 -272 0
270 -271 272 0
c gate 273 -173 -272 0
-173 -273 0
-272 -273 0
173 272 273 0
c gate 274 -170 -273 0
-170 -274 0
-273 -274 0
170 273 274 0
c gate 275 -169 -274 0
-169 -275 0
-274 -275 0
169 274 275 0
c gate 276 15 -31 0
15 -276 0
-31 -276 0
-15 31 276 0
c gate 277 -275 -276 0
-275 -277 0
-276 -277 0
275 276 277 0
c gate 278 -241 -277 0
-241 -278 0
-277 -278 0
241 277 278 0
c gate 279 132 -278 0
132 -279 0
-278 -279 0
-132 278 279 0
c gate 280 -76 -265 0
-76 -280 0
-265 -280 0
76 265 280 0
c gate 281 -75 -173 0
-75 -281 0
-173 -281 0
75 173 281 0
c gate 282 -280 281 0
-280 -282 0
281 -282 0
280 -281 282 0
c gate 283 -174 -282 0
-174 -283 0
-282 -283 0
174 282 283 0
c gate 284 -169 -283 0
-169 -284 0
-283 -284 0
169 283 284 0
c gate 285 -170 -284 0
-170 -285 0
-284 -285 0
170 284 285 0
c gate 286 -241 -285 0
-241 -286 0
-285 -286 0
241 285 286 0
c gate 287 -276 -286 0
-276 -287 0
-286 -287 0
276 286 287 0
c gate 288 132 287 0
132 -288 0
287 -288 0
-132 -287 288 0
c gate 289 277 286 0
277 -289 0
286 -289 0
-277 -286 289 0
c gate 290 -288 -289 0
-288 -290 0
-289 -290 0
288 289 290 0
c gate 291 -279 -290 0
-279 -291 0
-290 -291 0
279 290 291 0
c gate 292 172 -275 0
172 -292 0
-275 -292 0
-172 275 292 0
c gate 293 -285 292 0
-285 -293 0
292 -293 0
285 -292 293 0
c gate 294 -172 275 0
-172 -294 0
275 -294 0
172 -275 294 0
c gate 295 285 294 0
285 -295 0
294 -295 0
-285 -294 295 0
c gate 296 -94 -153 0
-94 -296 0
-153 -296 0
94 153 296 0
c gate 297 -152 -187 0
-152 -297 0
-187 -297 0
152 187 297 0
c gate 298 296 297 0
296 -298 0
297 -298 0
-296 -297 298 0
c gate 299 -256 -298 0
-256 -299 0
-298 -299 0
256 298 299 0
c gate 300 77 175 0
77 -300 0
175 -300 0
-77 -175 300 0
c gate 301 267 -300 0
267 -301 0
-300 -301 0
-267 300 301 0
c gate 302 265 301 0
265 -302 0
301 -302 0
-265 -301 302 0
c gate 303 -299 -302 0
-299 -303 0
-302 -303 0
299 302 303 0
c gate 304 239 -303 0
239 -304 0
-303 -304 0
-239 303 304 0
c gate 305 -171 -273 0
-171 -305 0
-273 -305 0
171 273 305 0
c gate 306 -283 305 0
-283 -306 0
305 -306 0
283 -305 306 0
c gate 307 -304 -306 0
-304 -307 0
-306 -307 0
304 306 307 0
c gate 308 -295 307 0
-295 -308 0
307 -308 0
295 -307 308 0
c gate 309 -293 308 0
-293 -309 0
308 -309 0
293 -308 309 0
c gate 310 -291 309 0
-291 -310 0
309 -310 0
291 -309 310 0
c gate 311 -240 310 0
-240 -311 0
310 -311 0
240 -310 311 0
c gate 312 -50 311 0
-50 -312 0
311 -312 0
50 -311 312 0
c gate 313 -204 -218 0
-204 -313 0
-218 -313 0
204 218 313 0
c gate 314 -312 -313 0
-312 -314 0
-313 -314 0
312 313 314 0
c gate 315 -208 -313 0
-208 -315 0
-313 -315 0
208 313 315 0
c gate 316 311 -315 0
311 -316 0
-315 -316 0
-311 315 316 0
c gate 317 -314 -316 0
-314 -317 0
-316 -317 0
314 316 317 0
c gate 318 73 317 0
73 -318 0
317 -318 0
-73 -317 318 0
c gate 319 -73 -317 0
-73 -319 0
-317 -319 0
73 317 319 0
c gate 320 -318 -319 0
-318 -320 0
-319 -320 0
318 319 320 0
c PO
-320 0
